c description: Random 3-CNF over 8 variables and 32 clauses
p cnf 8 32
1 4 -8 0
3 -4 -8 0
-4 5 -7 0
3 5 -7 0
-1 3 4 0
2 -3 5 0
-5 6 -8 0
2 -4 6 0
-1 -6 -7 0
2 4 -7 0
2 -4 7 0
1 -3 8 0
6 -7 -8 0
3 4 5 0
-2 5 7 0
-1 -4 -8 0
-3 4 5 0
1 6 -8 0
-3 -5 8 0
5 6 7 0
-1 -4 -7 0
1 3 4 0
-1 4 -5 0
-1 3 -7 0
2 -4 -7 0
-4 5 8 0
-4 -6 7 0
-4 -5 6 0
-1 3 -4 0
-5 7 -8 0
-4 -5 7 0
-4 6 -7 0